(declare-const x0 Real)
(assert (<= 0.100000 x0))
(declare-const x1 Real)
(assert (<= 0.100000 x1))
(declare-const x2 Real)
(assert (<= 0.100000 x2))
(declare-const x3 Real)
(assert (<= 0.100000 x3))
(declare-const x4 Real)
(assert (<= 0.100000 x4))
(declare-const x5 Real)
(assert (<= 0.100000 x5))
(declare-const x6 Real)
(assert (<= 0.010000 x6))

(assert (<= (- 1.0) (- (+ (/ (* (* 0.500000 (sqrt x0)) x6) (* x2 (^ x5 2.0))) (/ (* (* (* (* 0.700000 (^ x0 3.0)) x1) x5) (sqrt x6)) (^ x2 2.0)) (/ (* (* (* 0.200000 x2) (^ x5 0.666667)) (^ x6 0.250000)) (* x1 (sqrt x3)))))))
(assert (<= (- 1.0) (- (+ (/ (* (* 1.300000 x1) x5) (* (* (sqrt x0) x2) x4)) (/ (* (* 0.800000 x2) (^ x5 2.0)) (* x3 x4)) (/ (* (* 3.100000 (sqrt x1)) (^ x5 0.333333)) (* (* x0 (^ x3 2.0)) x4))))))
(assert (<= (- 1.0) (- (+ (/ (* (* (* 2.0 x0) x4) (^ x6 0.333333)) (* (^ x2 1.500000) x5)) (/ (* (* 0.100000 x1) x4) (* (* (sqrt x2) x5) (sqrt x6))) (/ (* (* x1 (sqrt x2)) x4) x0) (/ (* (* (* 0.650000 x2) x4) x6) (* (^ x1 2.0) x5))))))
(assert (<= (- 1.0) (- (+ (/ (* (* (* 0.200000 x1) (sqrt x4)) (^ x6 0.333333)) (* (^ x0 2.0) x3)) (/ (* (* (* (* (* 0.300000 (sqrt x0)) (^ x1 2.0)) x2) (^ x3 0.333333)) (^ x6 0.250000)) (^ x4 0.666667)) (/ (* (* (* 0.400000 x2) x4) (^ x6 0.750000)) (* (^ x0 3.0) (^ x1 2.0))) (/ (* (* 0.500000 x3) (sqrt x6)) (^ x2 2.0))))))
(assert (<= 100.0 (+ (/ (* (* (* 10.0 x0) (^ x3 2.0)) (sqrt x6)) (* x1 (^ x5 3.0))) (/ (* (* 15.0 x2) x3) (* (* (* x0 (^ x1 2.0)) x4) (sqrt x6))) (/ (* (* 20.0 x1) x5) (* (* (^ x0 2.0) x3) (^ x4 2.0))) (/ (* (* (* (* 25.0 (^ x0 2.0)) (^ x1 2.0)) (sqrt x4)) x6) (* x2 (^ x5 2.0))))))
(assert (<= (+ (/ (* (* (* 10.0 x0) (^ x3 2.0)) (sqrt x6)) (* x1 (^ x5 3.0))) (/ (* (* 15.0 x2) x3) (* (* (* x0 (^ x1 2.0)) x4) (sqrt x6))) (/ (* (* 20.0 x1) x5) (* (* (^ x0 2.0) x3) (^ x4 2.0))) (/ (* (* (* (* 25.0 (^ x0 2.0)) (^ x1 2.0)) (sqrt x4)) x6) (* x2 (^ x5 2.0)))) 3000.0))

(minimize
	(+ (/ (* (* (* 10.0 x0) (^ x3 2.0)) (sqrt x6)) (* x1 (^ x5 3.0))) (/ (* (* 15.0 x2) x3) (* (* (* x0 (^ x1 2.0)) x4) (sqrt x6))) (/ (* (* 20.0 x1) x5) (* (* (^ x0 2.0) x3) (^ x4 2.0))) (/ (* (* (* (* 25.0 (^ x0 2.0)) (^ x1 2.0)) (sqrt x4)) x6) (* x2 (^ x5 2.0))))
)
(check-sat)
(get-objectives)
(exit)

